c Resource 2 (Action Points) file for NavMesh graph
p sp 708 1400
a 1 5 50
a 2 8 150
a 2 3 150
a 3 2 150
a 3 4 150
a 4 3 50
a 4 5 50
a 4 184 50
a 5 1 30
a 5 4 30
a 6 8 150
a 7 8 100
a 8 7 30
a 8 6 30
a 8 2 30
a 9 10 100
a 10 63 30
a 10 9 30
a 11 13 150
a 12 13 100
a 13 11 100
a 13 12 100
a 13 18 100
a 14 21 30
a 14 16 30
a 15 17 30
a 15 19 30
a 16 14 100
a 16 19 100
a 17 18 100
a 17 15 100
a 18 13 150
a 18 17 150
a 19 16 150
a 19 15 150
a 20 23 100
a 21 14 30
a 21 23 30
a 22 83 100
a 22 23 100
a 23 21 150
a 23 22 150
a 23 20 150
a 24 27 100
a 25 26 100
a 25 27 100
a 26 25 150
a 27 24 100
a 27 25 100
a 28 31 100
a 29 108 100
a 29 31 100
a 30 35 100
a 30 31 100
a 31 29 30
a 31 30 30
a 31 28 30
a 32 34 150
a 33 34 100
a 34 33 150
a 34 32 150
a 34 40 150
a 35 30 50
a 35 37 50
a 36 39 50
a 36 38 50
a 37 35 150
a 37 39 150
a 38 40 150
a 38 36 150
a 39 37 100
a 39 36 100
a 40 34 100
a 40 38 100
a 41 42 100
a 42 71 30
a 42 41 30
a 43 45 150
a 44 45 100
a 45 43 50
a 45 44 50
a 45 47 50
a 46 54 150
a 46 49 150
a 47 45 100
a 47 48 100
a 48 47 100
a 48 51 100
a 49 46 150
a 49 50 150
a 50 49 100
a 50 51 100
a 51 48 100
a 51 142 100
a 51 50 100
a 52 54 150
a 53 54 100
a 54 53 30
a 54 52 30
a 54 46 30
a 55 56 100
a 56 79 30
a 56 55 30
a 57 58 100
a 57 59 100
a 58 57 100
a 59 57 100
a 60 84 50
a 60 66 50
a 61 192 30
a 61 64 30
a 62 87 30
a 62 65 30
a 63 10 50
a 63 64 50
a 64 66 100
a 64 61 100
a 64 65 100
a 64 63 100
a 65 62 50
a 65 64 50
a 66 60 30
a 66 64 30
a 67 72 100
a 68 100 50
a 68 74 50
a 69 194 30
a 69 72 30
a 70 103 30
a 70 73 30
a 71 42 50
a 71 72 50
a 72 74 100
a 72 69 100
a 72 73 100
a 72 71 100
a 72 67 100
a 73 70 50
a 73 72 50
a 74 68 30
a 74 72 30
a 75 80 100
a 76 104 50
a 76 82 50
a 77 196 30
a 77 80 30
a 78 106 30
a 78 81 30
a 79 56 50
a 79 80 50
a 80 82 100
a 80 77 100
a 80 81 100
a 80 79 100
a 80 75 100
a 81 78 50
a 81 80 50
a 82 76 30
a 82 80 30
a 83 113 100
a 83 22 100
a 84 60 30
a 84 85 30
a 85 84 100
a 86 88 50
a 87 62 100
a 87 89 100
a 88 86 100
a 88 90 100
a 89 87 30
a 89 91 30
a 90 88 150
a 90 92 150
a 91 89 150
a 91 93 150
a 92 90 50
a 92 93 50
a 93 91 100
a 93 92 100
a 94 96 50
a 95 101 150
a 95 97 150
a 96 94 150
a 96 98 150
a 97 95 100
a 97 99 100
a 98 96 100
a 98 101 100
a 99 97 50
a 99 100 50
a 100 68 30
a 100 99 30
a 101 95 50
a 101 98 50
a 102 103 150
a 103 70 50
a 103 102 50
a 104 76 30
a 104 105 30
a 105 104 100
a 106 78 50
a 106 107 50
a 107 106 150
a 108 154 100
a 108 29 100
a 109 111 100
a 110 115 150
a 111 109 150
a 111 119 150
a 112 246 100
a 112 114 100
a 113 83 30
a 113 116 30
a 114 112 100
a 114 121 100
a 115 110 150
a 115 120 150
a 116 113 30
a 116 122 30
a 117 125 100
a 117 128 100
a 118 126 100
a 118 128 100
a 119 111 100
a 119 126 100
a 120 115 50
a 120 125 50
a 121 114 150
a 121 130 150
a 122 116 100
a 122 129 100
a 123 129 30
a 123 128 30
a 124 204 100
a 124 128 100
a 125 120 150
a 125 117 150
a 126 119 100
a 126 118 100
a 127 205 100
a 127 128 100
a 128 118 100
a 128 124 100
a 128 117 100
a 128 131 100
a 128 127 100
a 128 123 100
a 129 122 100
a 129 123 100
a 130 121 150
a 130 131 150
a 131 130 30
a 131 128 30
a 132 136 100
a 133 137 100
a 134 138 150
a 135 139 100
a 136 132 50
a 136 143 50
a 137 133 50
a 137 149 50
a 138 134 100
a 138 144 100
a 139 135 100
a 139 148 100
a 140 147 100
a 140 149 100
a 141 273 50
a 141 145 50
a 142 51 150
a 142 143 150
a 143 136 100
a 143 148 100
a 143 142 100
a 144 138 100
a 144 148 100
a 145 141 100
a 145 148 100
a 146 206 100
a 146 150 100
a 147 203 100
a 147 140 100
a 148 150 100
a 148 144 100
a 148 145 100
a 148 149 100
a 148 139 100
a 148 143 100
a 149 137 100
a 149 140 100
a 149 148 100
a 150 146 150
a 150 148 150
a 151 157 100
a 152 158 100
a 153 272 100
a 153 156 100
a 154 108 150
a 154 155 150
a 155 154 150
a 155 162 150
a 156 153 100
a 156 164 100
a 157 151 100
a 157 161 100
a 158 152 100
a 158 163 100
a 159 168 100
a 159 170 100
a 160 169 150
a 160 170 150
a 161 157 100
a 161 169 100
a 162 155 100
a 162 172 100
a 163 158 30
a 163 168 30
a 164 156 30
a 164 171 30
a 165 171 100
a 165 170 100
a 166 206 100
a 166 170 100
a 167 205 100
a 167 170 100
a 168 163 100
a 168 159 100
a 169 161 100
a 169 160 100
a 170 160 100
a 170 166 100
a 170 159 100
a 170 173 100
a 170 167 100
a 170 165 100
a 171 164 100
a 171 165 100
a 172 162 100
a 172 173 100
a 173 172 50
a 173 170 50
a 174 176 100
a 175 177 100
a 176 174 50
a 176 181 50
a 177 175 100
a 177 181 100
a 178 183 150
a 178 187 150
a 179 185 50
a 179 186 50
a 180 204 100
a 180 182 100
a 181 187 30
a 181 176 30
a 181 182 30
a 181 177 30
a 181 188 30
a 182 180 100
a 182 181 100
a 183 247 30
a 183 178 30
a 184 4 100
a 184 185 100
a 185 184 50
a 185 179 50
a 186 179 30
a 186 188 30
a 187 178 150
a 187 181 150
a 188 186 150
a 188 181 150
a 189 191 100
a 190 191 100
a 191 190 50
a 191 189 50
a 191 199 50
a 192 61 50
a 192 193 50
a 193 192 150
a 194 69 50
a 194 195 50
a 195 194 150
a 196 77 50
a 196 197 50
a 197 196 150
a 198 209 150
a 198 200 150
a 199 191 100
a 199 201 100
a 200 198 30
a 200 203 30
a 201 199 100
a 201 202 100
a 202 201 100
a 202 203 100
a 203 200 100
a 203 202 100
a 203 147 100
a 204 124 30
a 204 180 30
a 205 167 30
a 205 127 30
a 206 146 30
a 206 166 30
a 207 209 100
a 208 209 100
a 209 207 50
a 209 208 50
a 209 198 50
a 210 227 30
a 210 211 30
a 211 210 100
a 212 215 100
a 213 219 30
a 213 218 30
a 214 216 100
a 215 212 100
a 215 217 100
a 216 214 100
a 216 218 100
a 217 215 100
a 217 219 100
a 218 216 50
a 218 213 50
a 219 217 150
a 219 213 150
a 220 234 30
a 220 221 30
a 221 220 100
a 222 242 30
a 222 223 30
a 223 222 100
a 224 248 50
a 224 230 50
a 225 370 30
a 225 228 30
a 226 251 30
a 226 229 30
a 227 210 50
a 227 228 50
a 228 230 100
a 228 225 100
a 228 229 100
a 228 227 100
a 229 226 50
a 229 228 50
a 230 224 30
a 230 228 30
a 231 264 50
a 231 237 50
a 232 378 30
a 232 235 30
a 233 267 30
a 233 236 30
a 234 220 50
a 234 235 50
a 235 237 100
a 235 232 100
a 235 236 100
a 235 234 100
a 236 233 50
a 236 235 50
a 237 231 30
a 237 235 30
a 238 243 100
a 239 268 50
a 239 245 50
a 240 386 30
a 240 243 30
a 241 270 30
a 241 244 30
a 242 222 50
a 242 243 50
a 243 245 100
a 243 240 100
a 243 244 100
a 243 242 100
a 243 238 100
a 244 241 50
a 244 243 50
a 245 239 30
a 245 243 30
a 246 277 100
a 246 112 100
a 247 357 50
a 247 183 50
a 248 224 30
a 248 249 30
a 249 248 100
a 250 252 50
a 251 226 100
a 251 253 100
a 252 250 100
a 252 254 100
a 253 251 30
a 253 255 30
a 254 252 150
a 254 256 150
a 255 253 150
a 255 257 150
a 256 254 50
a 256 257 50
a 257 255 100
a 257 256 100
a 258 260 50
a 259 265 150
a 259 261 150
a 260 258 150
a 260 262 150
a 261 259 100
a 261 263 100
a 262 260 100
a 262 265 100
a 263 261 50
a 263 264 50
a 264 231 30
a 264 263 30
a 265 259 50
a 265 262 50
a 266 267 150
a 267 233 50
a 267 266 50
a 268 239 30
a 268 269 30
a 269 268 100
a 270 241 50
a 270 271 50
a 271 270 150
a 272 318 100
a 272 153 100
a 273 309 50
a 273 141 50
a 274 275 100
a 275 274 100
a 275 285 100
a 276 406 30
a 276 280 30
a 277 246 30
a 277 281 30
a 278 287 30
a 278 291 30
a 279 292 100
a 279 283 100
a 280 276 100
a 280 286 100
a 281 277 100
a 281 287 100
a 282 285 30
a 282 284 30
a 283 289 100
a 283 279 100
a 283 291 100
a 283 284 100
a 284 282 100
a 284 283 100
a 285 275 50
a 285 282 50
a 286 280 100
a 286 290 100
a 287 281 30
a 287 278 30
a 288 404 100
a 288 292 100
a 289 290 100
a 289 283 100
a 290 286 100
a 290 289 100
a 291 278 30
a 291 283 30
a 292 288 50
a 292 279 50
a 293 295 100
a 294 299 150
a 295 293 150
a 295 303 150
a 296 407 30
a 296 300 30
a 297 408 100
a 297 298 100
a 298 297 100
a 298 305 100
a 299 294 150
a 299 304 150
a 300 296 30
a 300 306 30
a 301 307 30
a 301 302 30
a 302 301 30
a 302 312 30
a 303 295 150
a 303 310 150
a 304 299 50
a 304 311 50
a 305 298 150
a 305 314 150
a 306 300 50
a 306 307 50
a 307 306 30
a 307 301 30
a 308 430 100
a 308 312 100
a 309 273 150
a 309 312 150
a 310 303 100
a 310 315 100
a 311 304 150
a 311 316 150
a 312 309 150
a 312 315 150
a 312 302 150
a 312 308 150
a 312 313 150
a 312 316 150
a 313 314 30
a 313 312 30
a 314 305 150
a 314 313 150
a 315 310 100
a 315 312 100
a 316 311 100
a 316 312 100
a 317 320 100
a 318 272 150
a 318 319 150
a 319 318 150
a 319 327 150
a 320 317 100
a 320 328 100
a 321 407 100
a 321 322 100
a 322 321 100
a 322 329 100
a 323 338 50
a 323 341 50
a 324 339 30
a 324 341 30
a 325 399 30
a 325 330 30
a 326 398 100
a 326 331 100
a 327 319 50
a 327 332 50
a 328 320 30
a 328 336 30
a 329 322 30
a 329 334 30
a 330 325 50
a 330 338 50
a 331 326 50
a 331 339 50
a 332 327 30
a 332 340 30
a 333 340 100
a 333 341 100
a 334 329 50
a 334 342 50
a 335 336 30
a 335 341 30
a 336 328 150
a 336 335 150
a 337 342 150
a 337 341 150
a 338 330 50
a 338 323 50
a 339 331 50
a 339 324 50
a 340 332 150
a 340 333 150
a 341 335 100
a 341 333 100
a 341 324 100
a 341 323 100
a 341 337 100
a 342 334 100
a 342 337 100
a 343 346 150
a 344 406 100
a 344 345 100
a 345 344 100
a 345 349 100
a 346 343 150
a 346 348 150
a 347 351 100
a 347 354 100
a 348 346 50
a 348 351 50
a 349 345 150
a 349 353 150
a 350 357 50
a 350 355 50
a 351 348 150
a 351 347 150
a 352 356 100
a 352 358 100
a 353 349 150
a 353 354 150
a 354 353 150
a 354 347 150
a 354 359 150
a 354 358 150
a 355 350 30
a 355 359 30
a 356 409 30
a 356 352 30
a 357 247 100
a 357 350 100
a 358 352 100
a 358 354 100
a 359 355 150
a 359 354 150
a 360 362 100
a 361 363 100
a 362 360 150
a 362 364 150
a 363 361 100
a 363 364 100
a 364 363 100
a 364 362 100
a 364 365 100
a 365 364 100
a 365 366 100
a 366 365 50
a 366 368 50
a 367 395 50
a 367 369 50
a 368 369 150
a 368 366 150
a 369 367 100
a 369 368 100
a 370 225 100
a 370 371 100
a 371 370 30
a 371 373 30
a 372 374 50
a 373 371 150
a 373 375 150
a 374 372 100
a 374 376 100
a 375 373 100
a 375 377 100
a 376 374 150
a 376 377 150
a 377 375 50
a 377 376 50
a 378 232 100
a 378 379 100
a 379 378 30
a 379 381 30
a 380 382 50
a 381 379 150
a 381 383 150
a 382 380 100
a 382 384 100
a 383 381 100
a 383 385 100
a 384 382 150
a 384 385 150
a 385 383 50
a 385 384 50
a 386 240 100
a 386 387 100
a 387 386 30
a 387 389 30
a 388 390 50
a 389 387 150
a 389 391 150
a 390 388 100
a 390 392 100
a 391 389 100
a 391 393 100
a 392 390 150
a 392 393 150
a 393 391 50
a 393 392 50
a 394 397 150
a 395 367 30
a 395 397 30
a 396 408 30
a 396 397 30
a 397 395 50
a 397 396 50
a 397 394 50
a 398 401 150
a 398 326 150
a 399 325 100
a 399 400 100
a 400 399 50
a 400 405 50
a 401 398 50
a 401 405 50
a 402 509 100
a 402 403 100
a 403 402 150
a 403 405 150
a 404 288 30
a 404 405 30
a 405 404 50
a 405 455 50
a 405 403 50
a 405 400 50
a 405 401 50
a 406 276 100
a 406 344 100
a 407 296 100
a 407 321 100
a 408 396 100
a 408 297 100
a 409 470 50
a 409 356 50
a 410 413 100
a 411 417 30
a 411 416 30
a 412 414 100
a 413 410 100
a 413 415 100
a 414 412 100
a 414 416 100
a 415 413 100
a 415 417 100
a 416 414 50
a 416 411 50
a 417 415 150
a 417 411 150
a 418 421 30
a 419 425 100
a 419 424 100
a 420 422 30
a 421 418 30
a 421 423 30
a 422 420 30
a 422 424 30
a 423 421 50
a 423 425 50
a 424 422 150
a 424 419 150
a 425 423 100
a 425 419 100
a 426 429 100
a 427 428 150
a 427 429 150
a 428 427 150
a 429 426 100
a 429 427 100
a 430 447 50
a 430 308 50
a 431 437 100
a 432 435 100
a 433 516 100
a 433 436 100
a 434 517 50
a 434 438 50
a 435 432 100
a 435 441 100
a 436 433 100
a 436 443 100
a 437 431 100
a 437 442 100
a 438 434 50
a 438 445 50
a 439 444 30
a 439 440 30
a 440 439 50
a 440 450 50
a 441 435 100
a 441 449 100
a 442 437 30
a 442 448 30
a 443 436 30
a 443 444 30
a 444 443 30
a 444 439 30
a 445 438 150
a 445 452 150
a 446 612 100
a 446 450 100
a 447 430 150
a 447 450 150
a 448 442 100
a 448 453 100
a 449 441 100
a 449 454 100
a 450 453 100
a 450 446 100
a 450 454 100
a 450 451 100
a 450 447 100
a 450 440 100
a 451 452 50
a 451 450 50
a 452 445 100
a 452 451 100
a 453 448 100
a 453 450 100
a 454 449 100
a 454 450 100
a 455 489 100
a 455 405 100
a 456 458 100
a 457 473 50
a 457 459 50
a 458 456 100
a 458 461 100
a 459 457 50
a 459 462 50
a 460 464 100
a 460 465 100
a 461 458 100
a 461 464 100
a 462 459 150
a 462 466 150
a 463 470 50
a 463 468 50
a 464 461 100
a 464 460 100
a 465 466 30
a 465 472 30
a 465 471 30
a 465 460 30
a 466 462 100
a 466 465 100
a 467 469 100
a 467 471 100
a 468 463 30
a 468 472 30
a 469 586 30
a 469 467 30
a 470 409 100
a 470 463 100
a 471 467 100
a 471 465 100
a 472 468 150
a 472 465 150
a 473 477 100
a 473 457 100
a 474 475 100
a 475 474 100
a 475 485 100
a 476 585 100
a 476 478 100
a 477 473 100
a 477 479 100
a 478 476 100
a 478 484 100
a 479 477 100
a 479 483 100
a 480 494 100
a 480 488 100
a 481 493 100
a 481 488 100
a 482 492 30
a 482 488 30
a 483 479 50
a 483 486 50
a 484 478 30
a 484 487 30
a 485 475 100
a 485 493 100
a 486 483 30
a 486 494 30
a 487 484 150
a 487 491 150
a 488 490 50
a 488 482 50
a 488 480 50
a 488 481 50
a 489 455 30
a 489 492 30
a 490 491 50
a 490 488 50
a 491 487 150
a 491 490 150
a 492 489 30
a 492 482 30
a 493 485 100
a 493 481 100
a 494 486 100
a 494 480 100
a 495 497 100
a 496 611 100
a 496 499 100
a 497 495 150
a 497 506 150
a 498 516 50
a 498 501 50
a 499 496 50
a 499 504 50
a 500 509 100
a 500 513 100
a 501 498 30
a 501 505 30
a 502 515 50
a 502 510 50
a 503 514 150
a 503 510 150
a 504 499 100
a 504 507 100
a 505 501 150
a 505 508 150
a 506 497 30
a 506 514 30
a 507 504 100
a 507 515 100
a 508 505 100
a 508 512 100
a 509 402 150
a 509 500 150
a 510 511 150
a 510 513 150
a 510 502 150
a 510 503 150
a 511 512 30
a 511 510 30
a 512 508 150
a 512 511 150
a 513 500 50
a 513 510 50
a 514 506 100
a 514 503 100
a 515 507 50
a 515 502 50
a 516 433 100
a 516 498 100
a 517 520 100
a 517 434 100
a 518 521 100
a 519 525 50
a 519 521 50
a 520 517 100
a 520 521 100
a 521 519 100
a 521 518 100
a 521 520 100
a 522 524 100
a 523 524 100
a 524 522 150
a 524 523 150
a 524 529 150
a 525 519 50
a 525 528 50
a 526 530 100
a 526 528 100
a 527 529 150
a 527 530 150
a 528 525 150
a 528 526 150
a 529 524 100
a 529 527 100
a 530 527 50
a 530 526 50
a 531 567 150
a 531 532 150
a 532 531 50
a 532 534 50
a 533 535 30
a 534 532 100
a 534 536 100
a 535 533 100
a 535 537 100
a 536 534 150
a 536 538 150
a 537 535 100
a 537 538 100
a 538 536 30
a 538 537 30
a 539 542 150
a 540 546 100
a 540 545 100
a 541 543 150
a 542 539 150
a 542 544 150
a 543 541 150
a 543 545 150
a 544 542 30
a 544 546 30
a 545 543 100
a 545 540 100
a 546 544 50
a 546 540 50
a 547 574 150
a 547 548 150
a 548 547 50
a 548 550 50
a 549 551 30
a 550 548 100
a 550 552 100
a 551 549 100
a 551 553 100
a 552 550 150
a 552 554 150
a 553 551 100
a 553 554 100
a 554 552 30
a 554 553 30
a 555 581 150
a 555 556 150
a 556 555 50
a 556 558 50
a 557 559 30
a 558 556 100
a 558 560 100
a 559 557 100
a 559 561 100
a 560 558 150
a 560 562 150
a 561 559 100
a 561 562 100
a 562 560 30
a 562 561 30
a 563 568 100
a 564 587 50
a 564 570 50
a 565 694 30
a 565 568 30
a 566 590 30
a 566 569 30
a 567 531 50
a 567 568 50
a 568 570 100
a 568 565 100
a 568 569 100
a 568 567 100
a 568 563 100
a 569 566 50
a 569 568 50
a 570 564 30
a 570 568 30
a 571 603 50
a 571 577 50
a 572 696 30
a 572 575 30
a 573 606 30
a 573 576 30
a 574 547 50
a 574 575 50
a 575 577 100
a 575 572 100
a 575 576 100
a 575 574 100
a 576 573 50
a 576 575 50
a 577 571 30
a 577 575 30
a 578 607 50
a 578 584 50
a 579 698 30
a 579 582 30
a 580 609 30
a 580 583 30
a 581 555 50
a 581 582 50
a 582 584 100
a 582 579 100
a 582 583 100
a 582 581 100
a 583 580 50
a 583 582 50
a 584 578 30
a 584 582 30
a 585 618 100
a 585 476 100
a 586 690 50
a 586 469 50
a 587 564 30
a 587 588 30
a 588 587 100
a 589 591 50
a 590 566 100
a 590 592 100
a 591 589 100
a 591 593 100
a 592 590 30
a 592 594 30
a 593 591 150
a 593 595 150
a 594 592 150
a 594 596 150
a 595 593 50
a 595 596 50
a 596 594 100
a 596 595 100
a 597 599 50
a 598 604 150
a 598 600 150
a 599 597 150
a 599 601 150
a 600 598 100
a 600 602 100
a 601 599 100
a 601 604 100
a 602 600 50
a 602 603 50
a 603 571 30
a 603 602 30
a 604 598 50
a 604 601 50
a 605 606 150
a 606 573 50
a 606 605 50
a 607 578 30
a 607 608 30
a 608 607 100
a 609 580 50
a 609 610 50
a 610 609 150
a 611 657 100
a 611 496 100
a 612 645 50
a 612 446 50
a 613 614 50
a 614 613 100
a 614 626 100
a 615 622 100
a 616 617 100
a 617 616 150
a 617 623 150
a 618 585 30
a 618 619 30
a 619 618 30
a 619 624 30
a 620 706 100
a 620 625 100
a 621 707 100
a 621 625 100
a 622 615 100
a 622 628 100
a 623 617 100
a 623 627 100
a 624 619 100
a 624 630 100
a 625 631 50
a 625 621 50
a 625 629 50
a 625 632 50
a 625 620 50
a 625 633 50
a 626 614 30
a 626 633 30
a 627 623 100
a 627 632 100
a 628 622 150
a 628 631 150
a 629 630 30
a 629 625 30
a 630 624 100
a 630 629 100
a 631 628 30
a 631 625 30
a 632 627 100
a 632 625 100
a 633 626 150
a 633 625 150
a 634 635 50
a 635 634 100
a 635 646 100
a 636 641 100
a 637 639 100
a 638 642 100
a 639 637 50
a 639 644 50
a 640 650 100
a 640 652 100
a 640 647 100
a 641 636 100
a 641 647 100
a 642 638 100
a 642 652 100
a 643 645 100
a 643 652 100
a 644 639 100
a 644 652 100
a 645 612 150
a 645 643 150
a 646 635 30
a 646 648 30
a 647 641 150
a 647 640 150
a 648 646 150
a 648 652 150
a 649 708 30
a 649 651 30
a 650 702 100
a 650 640 100
a 651 649 150
a 651 652 150
a 652 651 30
a 652 648 30
a 652 640 30
a 652 642 30
a 652 643 30
a 652 644 30
a 653 654 50
a 654 653 100
a 654 665 100
a 655 662 100
a 656 659 100
a 657 611 150
a 657 658 150
a 658 657 150
a 658 663 150
a 659 656 100
a 659 664 100
a 660 708 100
a 660 667 100
a 661 707 100
a 661 667 100
a 662 655 100
a 662 669 100
a 663 658 100
a 663 670 100
a 664 659 30
a 664 668 30
a 665 654 30
a 665 673 30
a 666 670 50
a 666 667 50
a 667 671 30
a 667 660 30
a 667 672 30
a 667 666 30
a 667 661 30
a 667 673 30
a 668 664 100
a 668 672 100
a 669 662 150
a 669 671 150
a 670 663 100
a 670 666 100
a 671 669 30
a 671 667 30
a 672 668 100
a 672 667 100
a 673 665 150
a 673 667 150
a 674 677 50
a 675 678 100
a 676 679 100
a 677 674 50
a 677 681 50
a 678 675 100
a 678 683 100
a 679 676 100
a 679 682 100
a 680 690 100
a 680 685 100
a 681 677 30
a 681 684 30
a 682 686 30
a 682 684 30
a 682 689 30
a 682 679 30
a 682 688 30
a 683 678 100
a 683 686 100
a 684 681 30
a 684 682 30
a 685 680 100
a 685 688 100
a 686 683 100
a 686 682 100
a 687 706 100
a 687 689 100
a 688 685 100
a 688 682 100
a 689 687 100
a 689 682 100
a 690 586 100
a 690 680 100
a 691 693 100
a 692 693 100
a 693 692 50
a 693 691 50
a 693 703 50
a 694 565 50
a 694 695 50
a 695 694 150
a 696 572 50
a 696 697 50
a 697 696 150
a 698 579 50
a 698 699 50
a 699 698 150
a 700 701 100
a 701 700 150
a 701 702 150
a 702 701 100
a 702 705 100
a 702 650 100
a 703 693 100
a 703 704 100
a 704 703 100
a 704 705 100
a 705 704 100
a 705 702 100
a 706 620 30
a 706 687 30
a 707 661 30
a 707 621 30
a 708 649 30
a 708 660 30
